127
0 15 13 11 30 26 29 42 33 41 122 96 97 31 28 27 121 32 24 37 38 25 79 78 76 17 20 16 19 107 14 105 5 23 22 3 21 18 71 7 8 10 113 104 6 119 9 114 12 49 4 120 55 123 51 63 57 99 2 89 115 59 60 90 61 58 66 72 73 67 70 69 68 74 75 77 116 83 80 125 81 82 100 101 62 118 95 108 87 86 85 84 109 103 124 88 91 98 64 112 65 54 46 48 52 47 117 45 93 111 110 106 126 92 94 39 40 35 36 34 43 102 44 53 56 50 1 
